1
1000
79
162 7
163 4
164 4
165 5
166 5
167 17
168 3
169 5
170 8
171 9
172 5
173 5
174 5
175 5
176 9
177 4
178 4
179 5
180 5
181 9
182 11
183 5
184 2
185 5
186 6
187 6
188 9
189 4
190 6
191 9
192 10
193 3
194 3
195 12
196 9
197 7
198 10
199 4
200 11
201 6
202 4
203 8
204 7
205 7
206 11
207 3
208 8
209 6
210 5
211 5
212 9
213 12
214 5
215 6
216 7
217 6
218 9
219 6
220 5
221 7
222 3
223 4
224 7
225 4
226 4
227 8
228 2
229 4
230 11
231 7
232 4
233 6
234 6
235 6
236 11
237 5
238 2
239 4
240 5
